%%% static parameters %%%
timespan = 1;
Fact = [2];
Distr1 = [5];
Distr2 = [10];
Clients_N = [60];
Demand_W = [15];
Lt0 = [4];
Lt1 = [4];
SS_ = [0.85];
DS_D = [8];
K = [200];
MA = [500];
%%% dynamic parameters %%%
lost_ratio_sales_ret_th = 0.7855045171550133;
lost_ratio_sales_ret_w = 86;
lost_ratio_sales_dis_th = 0.3030229429649627;
lost_ratio_sales_dis_w = 25;
lost_ratio_sales_fac_th = 0.5337779158685122;
lost_ratio_sales_fac_w = 38;
stock_customer_MA_mean_relative_th = 0.19262267500174957;
stock_customer_MA_mean_relative_w = 85;
stock_distributor_MA_mean_relative_th = 0.9688236944321549;
stock_distributor_MA_mean_relative_w = 22;
stock_retailer_MA_mean_relative_th = 0.2567455935834858;
stock_retailer_MA_mean_relative_w = 58;
stock_factory_MA_mean_relative_th = 0.28623543876221846;
stock_factory_MA_mean_relative_w = 10;
